c 
p cnf 10 40
-8 4 -6 -5 0
-1 9 4 0
-9 6 7 -10 0
-3 0
1 -6 5 2 10 0
9 -8 0
5 0
7 0
9 4 -6 -5 1 0
3 -10 9 4 2 0
3 0
-8 3 6 7 -10 0
-8 -10 1 -5 0
6 7 -1 -10 0
-4 10 0
-1 -7 -6 -5 0
2 0
4 -3 9 -5 0
-3 -2 0
9 -3 -5 -2 0
8 2 -6 -3 0
2 0
7 -1 2 -5 3 0
3 5 2 -9 0
1 -6 -7 -3 0
4 -1 -9 10 0
4 9 6 8 -3 0
8 0
-7 2 1 0
10 0
-9 6 -2 0
5 9 -8 -10 0
-2 -9 4 10 0
6 0
-2 -8 7 3 1 0
10 9 2 0
5 -6 10 -8 0
5 0
-6 4 -5 0
7 1 -10 3 0
